x low 4.00
p edge 144 416
n 0 1.00
n 33 1.00
n 86 1.00
n 102 1.00
n 81 1.00
n 1 1.00
n 41 1.00
n 36 1.00
n 46 1.00
n 109 1.00
n 28 1.00
n 18 1.00
n 2 1.00
n 93 1.00
n 61 1.00
n 112 1.00
n 21 1.00
n 47 1.00
n 72 1.00
n 75 1.00
n 3 1.00
n 44 1.00
n 127 1.00
n 103 1.00
n 114 1.00
n 149 1.00
n 4 1.00
n 96 1.00
n 6 1.00
n 106 1.00
n 99 1.00
n 5 1.00
n 8 1.00
n 27 1.00
n 98 1.00
n 10 1.00
n 113 1.00
n 83 1.00
n 7 1.00
n 123 1.00
n 88 1.00
n 9 1.00
n 62 1.00
n 95 1.00
n 129 1.00
n 60 1.00
n 35 1.00
n 11 1.00
n 23 1.00
n 115 1.00
n 42 1.00
n 52 1.00
n 12 1.00
n 90 1.00
n 73 1.00
n 105 1.00
n 135 1.00
n 111 1.00
n 13 1.00
n 71 1.00
n 79 1.00
n 48 1.00
n 121 1.00
n 14 1.00
n 77 1.00
n 132 1.00
n 58 1.00
n 15 1.00
n 110 1.00
n 120 1.00
n 51 1.00
n 16 1.00
n 65 1.00
n 139 1.00
n 17 1.00
n 64 1.00
n 74 1.00
n 84 1.00
n 142 1.00
n 107 1.00
n 19 1.00
n 50 1.00
n 45 1.00
n 89 1.00
n 24 1.00
n 20 1.00
n 43 1.00
n 63 1.00
n 124 1.00
n 78 1.00
n 148 1.00
n 87 1.00
n 22 1.00
n 143 1.00
n 128 1.00
n 37 1.00
n 31 1.00
n 130 1.00
n 117 1.00
n 126 1.00
n 80 1.00
n 140 1.00
n 25 1.00
n 55 1.00
n 145 1.00
n 82 1.00
n 26 1.00
n 30 1.00
n 122 1.00
n 116 1.00
n 39 1.00
n 85 1.00
n 29 1.00
n 144 1.00
n 66 1.00
n 32 1.00
n 104 1.00
n 91 1.00
n 125 1.00
n 34 1.00
n 92 1.00
n 68 1.00
n 40 1.00
n 100 1.00
n 38 1.00
n 59 1.00
n 56 1.00
n 138 1.00
n 108 1.00
n 70 1.00
n 53 1.00
n 137 1.00
n 146 1.00
n 49 1.00
n 57 1.00
n 134 1.00
n 54 1.00
n 69 1.00
n 136 1.00
n 131 1.00
n 133 1.00
n 101 1.00
n 76 1.00
n 94 1.00
e 0 33
e 0 86
e 0 102
e 0 81
e 1 41
e 1 36
e 1 46
e 1 109
e 1 28
e 1 18
e 2 93
e 2 61
e 2 112
e 2 21
e 2 47
e 2 72
e 2 75
e 3 44
e 3 127
e 3 103
e 3 114
e 3 149
e 4 96
e 4 6
e 4 106
e 4 99
e 5 8
e 5 27
e 5 36
e 5 18
e 5 98
e 5 10
e 5 113
e 6 33
e 6 83
e 6 7
e 6 102
e 6 123
e 6 96
e 6 106
e 7 83
e 7 88
e 7 123
e 8 41
e 8 27
e 8 36
e 9 112
e 9 93
e 9 62
e 9 95
e 10 129
e 10 60
e 10 35
e 10 27
e 11 23
e 11 115
e 11 42
e 11 52
e 12 90
e 12 73
e 12 105
e 12 135
e 12 111
e 13 71
e 13 79
e 13 48
e 13 121
e 13 14
e 14 79
e 14 77
e 14 121
e 14 132
e 14 58
e 14 15
e 15 58
e 15 132
e 15 110
e 15 120
e 15 51
e 16 65
e 16 139
e 16 129
e 17 64
e 17 74
e 17 84
e 17 96
e 17 142
e 18 36
e 18 28
e 18 98
e 18 107
e 19 46
e 19 50
e 19 45
e 19 109
e 19 89
e 19 24
e 20 114
e 20 43
e 20 149
e 20 63
e 20 124
e 20 79
e 20 77
e 20 78
e 20 148
e 20 87
e 21 124
e 21 103
e 21 148
e 21 61
e 21 75
e 22 143
e 22 128
e 22 37
e 22 48
e 22 31
e 22 121
e 22 130
e 23 117
e 23 126
e 23 115
e 23 52
e 24 89
e 24 109
e 24 80
e 24 140
e 25 55
e 25 145
e 25 82
e 25 74
e 25 96
e 26 30
e 26 122
e 26 139
e 26 116
e 26 128
e 27 41
e 27 39
e 27 35
e 28 109
e 28 80
e 28 85
e 28 107
e 29 95
e 29 62
e 29 88
e 29 83
e 29 33
e 30 122
e 30 144
e 30 128
e 30 143
e 31 37
e 31 130
e 31 66
e 32 51
e 32 104
e 32 91
e 32 125
e 32 55
e 33 47
e 33 62
e 33 72
e 33 75
e 33 86
e 33 83
e 33 102
e 34 95
e 34 51
e 34 92
e 34 88
e 34 123
e 35 68
e 35 60
e 35 117
e 35 39
e 36 41
e 37 128
e 37 40
e 37 100
e 37 115
e 37 66
e 38 59
e 38 56
e 38 129
e 38 40
e 38 100
e 38 126
e 38 115
e 39 52
e 39 117
e 39 138
e 39 41
e 40 56
e 40 116
e 40 128
e 40 100
e 41 138
e 41 46
e 42 115
e 42 66
e 42 108
e 42 50
e 42 52
e 43 105
e 43 70
e 43 63
e 43 114
e 44 70
e 44 127
e 44 114
e 45 53
e 45 137
e 45 91
e 45 50
e 45 89
e 46 138
e 46 50
e 46 109
e 47 112
e 47 62
e 47 72
e 48 143
e 48 146
e 48 71
e 48 121
e 49 57
e 49 134
e 49 54
e 49 69
e 49 136
e 49 131
e 50 108
e 50 52
e 50 138
e 50 137
e 51 110
e 51 120
e 51 104
e 51 125
e 51 95
e 51 92
e 52 117
e 52 138
e 53 137
e 53 133
e 53 104
e 53 91
e 54 140
e 54 57
e 54 64
e 54 131
e 55 89
e 55 91
e 55 125
e 55 145
e 55 82
e 56 59
e 56 116
e 57 80
e 57 140
e 57 85
e 57 134
e 58 77
e 58 78
e 58 120
e 59 139
e 59 65
e 59 116
e 59 129
e 60 129
e 60 126
e 60 68
e 61 148
e 61 87
e 61 93
e 62 112
e 62 95
e 63 105
e 63 111
e 63 71
e 63 79
e 64 140
e 64 82
e 64 74
e 64 131
e 64 84
e 65 139
e 65 129
e 66 115
e 66 130
e 66 108
e 66 133
e 68 126
e 68 117
e 69 134
e 69 107
e 69 101
e 69 136
e 70 127
e 70 105
e 70 114
e 71 146
e 71 144
e 71 111
e 71 79
e 72 75
e 73 90
e 73 139
e 73 122
e 73 135
e 74 82
e 74 96
e 75 86
e 75 81
e 75 103
e 76 130
e 76 121
e 76 132
e 76 133
e 77 79
e 77 78
e 78 87
e 78 120
e 80 109
e 80 140
e 80 85
e 81 102
e 81 94
e 81 86
e 81 142
e 81 84
e 82 89
e 82 140
e 83 88
e 84 131
e 84 142
e 84 136
e 85 107
e 85 134
e 87 148
e 87 120
e 87 93
e 88 95
e 88 123
e 89 91
e 89 140
e 90 105
e 90 127
e 91 104
e 92 125
e 92 123
e 92 145
e 93 120
e 93 112
e 93 95
e 94 102
e 94 106
e 94 142
e 95 120
e 96 145
e 96 123
e 96 99
e 96 142
e 98 107
e 98 113
e 99 142
e 99 106
e 100 115
e 101 107
e 101 113
e 101 136
e 102 106
e 103 127
e 103 149
e 103 124
e 104 132
e 104 110
e 104 133
e 105 127
e 105 111
e 106 142
e 107 134
e 107 113
e 108 133
e 108 137
e 110 132
e 111 135
e 111 144
e 114 149
e 115 126
e 116 139
e 116 128
e 117 126
e 121 130
e 121 132
e 122 139
e 122 135
e 122 144
e 123 145
e 124 149
e 124 148
e 125 145
e 126 129
e 128 143
e 130 133
e 131 136
e 132 133
e 133 137
e 135 144
e 143 144
e 143 146
e 144 146
e 10 16
e 103 90
